==> PRESOLVE             = 0
==> MAXTIME              = 3600
==> OUTPUTLOG            = 1
FICO Xpress v8.5.9, solve started 23:46:39, Jun 8, 2019
Maximizing MILP Seating model
Original problem has:
       230 rows          300 cols         7440 elements       300 globals
Symmetric problem: generators: 33, support set: 56
 Number of orbits: 24, largest orbit: 10
 Row orbits: 47, row support: 112
Will try to keep branch and bound tree memory usage below 7.2GB
 *** Heuristic solution found:    22.000000      Time: 0 ***
 *** Heuristic solution found:    27.000000      Time: 0 ***
Starting concurrent solve with dual

 Concurrent-Solve,   0s
            Dual        
    objective   dual inf
 D  102.00000   .0000000
------- optimal --------
Concurrent statistics:
      Dual: 41 simplex iterations, 0.00s
Optimal solution found
 
   Its         Obj Value      S   Ninf  Nneg   Sum Dual Inf  Time
    41        102.000000      D      0     0        .000000     0
Dual solved problem
  41 simplex iterations in 0s

Final objective                         : 1.020000000000000e+02
  Max primal violation      (abs / rel) : 2.220e-16 / 1.870e-16
  Max dual violation        (abs / rel) :       0.0 /       0.0
  Max complementarity viol. (abs / rel) :       0.0 /       0.0
All values within tolerances

Starting root cutting & heuristics
 
 Its Type    BestSoln    BestBound   Sols    Add    Del     Gap     GInf   Time
   1  K     27.000000   102.000000      2    183      0   73.53%      19      0
   2  K     27.000000   102.000000      2    212    163   73.53%      27      0
   3  K     27.000000   102.000000      2    222    206   73.53%      45      0
   4  K     27.000000   102.000000      2    180    217   73.53%      35      0
   5  K     27.000000   102.000000      2    217    175   73.53%      45      0
   6  K     27.000000   102.000000      2    221    211   73.53%      60      0
   7  K     27.000000   102.000000      2    214    205   73.53%      67      0
   8  K     27.000000   102.000000      2    207    206   73.53%      60      1
   9  K     27.000000   102.000000      2    241    204   73.53%      85      1
  10  K     27.000000   102.000000      2     91    220   73.53%      95      1
  11  K     27.000000   102.000000      2    217    115   73.53%      81      1
  12  K     27.000000   102.000000      2    185    207   73.53%      91      1
a           51.000000   102.000000      3                 50.00%       0      1
  13  K     51.000000   102.000000      3    235    189   50.00%      85      1
  14  K     51.000000   102.000000      3     11    247   50.00%      30      1
  15  K     51.000000   102.000000      3      7     18   50.00%      30      1
  16  K     51.000000   102.000000      3      0     10   50.00%      30      1
Heuristic search started
Heuristic search stopped
 
Cuts in the matrix         : 50
Cut elements in the matrix : 1200
 
Starting tree search.
Deterministic mode with up to 4 running threads and up to 8 tasks.
 
    Node     BestSoln    BestBound   Sols Active  Depth     Gap     GInf   Time
       1    51.000000   102.000000      3      2      1   50.00%      30      1
       2    51.000000   102.000000      3      3      2   50.00%      60      1
       3    51.000000   102.000000      3      4      3   50.00%      49      1
       4    51.000000   102.000000      3      5      2   50.00%      45      1
       5    51.000000   102.000000      3      5      4   50.00%      38      1
       6    51.000000   102.000000      3      6      5   50.00%      40      1
       7    51.000000   102.000000      3      8      3   50.00%      43      1
       8    51.000000   102.000000      3      8      6   50.00%      38      1
       9    51.000000   102.000000      3      9      7   50.00%      41      1
      10    51.000000   102.000000      3     10      4   50.00%      44      1
      21    51.000000   102.000000      3     17     15   50.00%      58      1
      31    51.000000   102.000000      3     21     17   50.00%      58      2
      41    51.000000   102.000000      3     48      1   50.00%       1      2
      51    51.000000   102.000000      3     52     24   50.00%      15      2
      62    51.000000   102.000000      3     54     32   50.00%      11      2
      78    51.000000   102.000000      3     54     39   50.00%      11      2
      89    51.000000   102.000000      3     61     35   50.00%      43      2
     104    51.000000   102.000000      3     78     29   50.00%      18      2
     208    51.000000   102.000000      3    131     16   50.00%      22      3
B&B tree size: 2.4MB total
 
    Node     BestSoln    BestBound   Sols Active  Depth     Gap     GInf   Time
     309    51.000000   102.000000      3    164     16   50.00%      32      3
a    426    53.000000   102.000000      4    215     33   48.04%       0      3
     429    53.000000   102.000000      4    215     32   48.04%      15      3
a    527    59.000000   102.000000      5    278     31   42.16%       0      3
     539    59.000000   102.000000      5    278     37   42.16%      39      3
     651    59.000000   102.000000      5    266     51   42.16%      23      3
     755    59.000000   102.000000      5    347     36   42.16%      38      4
     865    59.000000   102.000000      5    385     42   42.16%      53      4
     968    59.000000   102.000000      5    415     28   42.16%      29      4
    1074    59.000000   102.000000      5    465     28   42.16%      42      4
    1179    59.000000   102.000000      5    523     41   42.16%      16      4
    1282    59.000000   102.000000      5    554     25   42.16%      34      5
    1383    59.000000   102.000000      5    620     36   42.16%      18      5
    1484    59.000000   102.000000      5    660     38   42.16%      33      5
    1589    59.000000   102.000000      5    743     41   42.16%      33      5
    1690    59.000000   102.000000      5    805     25   42.16%      40      5
    1802    59.000000   102.000000      5    860     57   42.16%      26      6
    1903    59.000000   102.000000      5    896     22   42.16%      51      6
    2009    59.000000   102.000000      5    947     28   42.16%      22      6
    2112    59.000000   102.000000      5    994     24   42.16%      18      6
B&B tree size: 13MB total
 
    Node     BestSoln    BestBound   Sols Active  Depth     Gap     GInf   Time
    2217    59.000000   102.000000      5   1067     32   42.16%      28      6
    2317    59.000000   102.000000      5   1091     30   42.16%      30      7
    2420    59.000000   102.000000      5   1107     36   42.16%      28      7
    2521    59.000000   102.000000      5   1144     27   42.16%      35      7
    2624    59.000000   102.000000      5   1214     16   42.16%      21      7
    2727    59.000000   102.000000      5   1286     29   42.16%      25      7
    2831    59.000000   102.000000      5   1313     27   42.16%      45      8
    2932    59.000000   102.000000      5   1373     25   42.16%      29      8
    3032    59.000000   102.000000      5   1427     27   42.16%      20      8
a   3101    60.000000   102.000000      6   1448     47   41.18%       0      8
    3145    60.000000   102.000000      6   1448     43   41.18%      15      8
    3259    60.000000   100.933870      6   1515     59   40.56%      22      8
    3361    60.000000   100.933870      6   1582     63   40.56%      23      8
    3466    60.000000   100.933870      6   1587     21   40.56%      32      9
    3568    60.000000   100.933870      6   1629     35   40.56%      17      9
    3668    60.000000   100.933870      6   1645     33   40.56%      56      9
    3771    60.000000    98.072304      6   1700     27   38.82%      39      9
    3874    60.000000    97.524084      6   1769     16   38.48%      46      9
    3981    60.000000    97.524084      6   1786     53   38.48%      32     10
    4086    60.000000    97.524084      6   1847     44   38.48%      39     10
B&B tree size: 20MB total
 
    Node     BestSoln    BestBound   Sols Active  Depth     Gap     GInf   Time
    4190    60.000000    97.524084      6   1894     22   38.48%      19     10
    4290    60.000000    97.130933      6   1897     30   38.23%      25     10
    4395    60.000000    97.083849      6   1978     30   38.20%      43     10
    4502    60.000000    96.722704      6   1998     27   37.97%      30     10
    4603    60.000000    96.722704      6   2042     36   37.97%      24     11
    4712    60.000000    96.722704      6   2113     31   37.97%      17     11
    4820    60.000000    95.603921      6   2148     43   37.24%      22     11
    4931    60.000000    95.603921      6   2197     29   37.24%      16     11
    5035    60.000000    95.200105      6   2212     34   36.97%      33     11
    5141    60.000000    95.200105      6   2262     44   36.97%      54     12
    5252    60.000000    94.125434      6   2295     44   36.26%      49     12
    5359    60.000000    92.967544      6   2379     32   35.46%      53     12
    5463    60.000000    92.967544      6   2452     30   35.46%      12     12
    5572    60.000000    92.967544      6   2457     47   35.46%      24     12
    5678    60.000000    92.848014      6   2544     24   35.38%      12     13
    5779    60.000000    92.848014      6   2569     32   35.38%      34     13
    5880    60.000000    92.848014      6   2580     43   35.38%      18     13
    5987    60.000000    91.513727      6   2637     48   34.44%      25     13
    6087    60.000000    91.513727      6   2687     49   34.44%      54     13
    6187    60.000000    91.038419      6   2692     32   34.09%      27     14
B&B tree size: 29MB total
 
    Node     BestSoln    BestBound   Sols Active  Depth     Gap     GInf   Time
    6297    60.000000    91.038419      6   2747     49   34.09%      25     14
    6399    60.000000    91.038419      6   2807     29   34.09%      21     14
    6499    60.000000    91.019017      6   2823      1   34.08%       1     14
    6606    60.000000    91.019017      6   2869     55   34.08%      41     14
    6706    60.000000    91.019017      6   2931     26   34.08%      22     14
    6831    60.000000    91.019017      6   2965     43   34.08%      40     15
    6936    60.000000    90.000000      6   3000     52   33.33%      59     15
    7043    60.000000    90.000000      6   3035     31   33.33%      33     15
    7146    60.000000    89.529407      6   3058     36   32.98%      24     15
    7254    60.000000    89.064276      6   3119     45   32.63%      38     15
    7357    60.000000    88.610877      6   3208     33   32.29%      26     16
    7458    60.000000    88.610877      6   3209     25   32.29%      18     16
    7560    60.000000    88.000000      6   3243     30   31.82%      17     16
    7666    60.000000    88.000000      6   3291     27   31.82%      31     16
    7768    60.000000    88.000000      6   3352     19   31.82%      40     16
    7871    60.000000    88.000000      6   3370     16   31.82%      22     16
    7971    60.000000    88.000000      6   3383     42   31.82%      14     17
    8081    60.000000    88.000000      6   3418     35   31.82%      24     17
    8183    60.000000    88.000000      6   3515     39   31.82%      38     17
    8287    60.000000    88.000000      6   3512     36   31.82%      25     17
B&B tree size: 39MB total
 
    Node     BestSoln    BestBound   Sols Active  Depth     Gap     GInf   Time
    8390    60.000000    88.000000      6   3526     25   31.82%      46     18
    8490    60.000000    88.000000      6   3591      1   31.82%       1     18
    8609    60.000000    88.000000      6   3691     44   31.82%      17     18
    8710    60.000000    88.000000      6   3730     44   31.82%      17     18
    8810    60.000000    88.000000      6   3776      1   31.82%       1     18
    8917    60.000000    88.000000      6   3781     22   31.82%      26     18
    9026    60.000000    86.528385      6   3847     33   30.66%      22     19
    9127    60.000000    86.528385      6   3916     25   30.66%      37     19
    9228    60.000000    86.527725      6   3938      1   30.66%       1     19
    9330    60.000000    86.527725      6   3967     29   30.66%      45     19
    9434    60.000000    86.527725      6   4002     18   30.66%      52     19
    9536    60.000000    86.367096      6   4064     18   30.53%      34     20
    9645    60.000000    86.367096      6   4102     59   30.53%      20     20
    9754    60.000000    86.348743      6   4121     43   30.51%      17     20
    9872    60.000000    86.348743      6   4151     58   30.51%      30     20
    9978    60.000000    86.348743      6   4229     54   30.51%      18     20
   10086    60.000000    86.200000      6   4303     32   30.39%      26     21
   11086    60.000000    85.231089      6   4642     32   29.60%      31     22
   12087    60.000000    85.000000      6   5065     25   29.41%      32     24
   13094    60.000000    84.267483      6   5391     47   28.80%      28     25
B&B tree size: 60MB total
 
    Node     BestSoln    BestBound   Sols Active  Depth     Gap     GInf   Time
   14102    60.000000    84.000000      6   5695     29   28.57%      25     27
   15108    60.000000    83.546263      6   5966     36   28.18%      16     28
   16108    60.000000    83.000000      6   6211     21   27.71%      51     30
   17117    60.000000    83.000000      6   6542     44   27.71%      12     31
   18118    60.000000    82.635739      6   6821     38   27.39%      27     33
   19121    60.000000    82.000000      6   7073     45   26.83%      13     34
   20122    60.000000    82.000000      6   7318     31   26.83%      38     36
   21128    60.000000    82.000000      6   7537     48   26.83%      25     37
   22128    60.000000    82.000000      6   7778     35   26.83%      21     39
   23133    60.000000    81.000000      6   8059     32   25.93%      16     41
   24133    60.000000    81.000000      6   8277     32   25.93%      12     42
   25147    60.000000    81.000000      6   8552     51   25.93%      21     44
   26154    60.000000    81.000000      6   8741     18   25.93%      33     45
   27166    60.000000    80.754484      6   8910     26   25.70%      43     46
   28177    60.000000    80.172017      6   9198     47   25.16%      14     48
   29179    60.000000    80.000000      6   9450     36   25.00%      62     50
   30179    60.000000    80.000000      6   9645     53   25.00%      57     51
User interrupt (9) triggered.
 *** Search unfinished ***    Time:    52 Nodes:      30566
Number of integer feasible solutions found is 6
Best integer solution found is    60.000000
Best bound is    80.000000
